Maximize
F 

Subject to
F - 6.0y135 - 12.0y187 - 6.0y137 - 12.0y301 - 6.0y255 - 3.0y133 - 12.0y254 - 12.0y12 - 3.0y111 - 9.0y89 - 3.0y188 - 3.0y272 - 3.0y261 - 9.0y250 - 9.0y119 - 3.0y195 = 0

x51x119x1 
<= 2
x231x255x1 + x231x12x1 + x231x89x1 + x231x272x1 + x231x261x1 + x231x119x1 + x231x195x1 
<= 1
x5x255x1 + x5x12x1 + x5x89x1 + x5x272x1 + x5x261x1 + x5x119x1 + x5x195x1 
<= 1
x57x301x2 + x57x254x2 + x57x12x2 + x57x111x2 + x57x89x2 + x57x272x2 + x57x250x2 + x57x119x2 
<= 1
x100x301x2 + x100x254x2 + x100x12x2 + x100x111x2 + x100x89x2 + x100x272x2 + x100x250x2 + x100x119x2 
<= 2
x176x137x2 + x176x301x2 + x176x254x2 + x176x12x2 + x176x111x2 + x176x89x2 + x176x272x2 + x176x250x2 + x176x119x2 
<= 1
x231x301x2 + x231x254x2 + x231x12x2 + x231x111x2 + x231x89x2 + x231x272x2 + x231x250x2 + x231x119x2 
<= 1
x44x301x2 + x44x254x2 + x44x12x2 + x44x111x2 + x44x89x2 + x44x272x2 + x44x250x2 + x44x119x2 
<= 1
x57x301x3 + x57x255x3 + x57x254x3 + x57x111x3 + x57x188x3 + x57x261x3 + x57x250x3 
<= 1
x176x187x3 + x176x137x3 + x176x301x3 + x176x255x3 + x176x254x3 + x176x111x3 + x176x188x3 + x176x261x3 + x176x250x3 
<= 1
x5x255x3 + x5x254x3 + x5x111x3 + x5x188x3 + x5x261x3 + x5x250x3 
<= 1
x56x254x3 + x56x111x3 + x56x188x3 + x56x261x3 + x56x250x3 
<= 2
x149x250x3 
<= 2




- x135x111x3 - x135x188x3 - x135x261x3 - x135x250x3 
= 0


- x187x133x1 - x187x12x1 - x187x89x1 - x187x272x1 - x187x261x1 - x187x119x1 - x187x195x1 
= 0

x176x187x3 
- x187x0x3
- x187x188x3 - x187x261x3 - x187x250x3 
= 0


x176x137x2 
- x137x0x2
- x137x12x2 - x137x111x2 - x137x89x2 - x137x272x2 - x137x250x2 - x137x119x2 
= 0
x176x137x3 
- x137x0x3
- x137x111x3 - x137x188x3 - x137x261x3 - x137x250x3 
= 0


x57x301x2 + x100x301x2 + x176x301x2 + x231x301x2 + x44x301x2 
- x301x0x2
- x301x250x2 - x301x119x2 
= 0
x57x301x3 + x176x301x3 
- x301x0x3
- x301x250x3 
= 0

x231x255x1 + x5x255x1 
- x255x0x1
- x255x89x1 - x255x261x1 - x255x119x1 - x255x195x1 
= 0

x57x255x3 + x176x255x3 + x5x255x3 
- x255x0x3
- x255x111x3 - x255x261x3 - x255x250x3 
= 0

x187x133x1 
- x133x0x1
- x133x12x1 - x133x272x1 - x133x261x1 - x133x119x1 - x133x195x1 
= 0




x57x254x2 + x100x254x2 + x176x254x2 + x231x254x2 + x44x254x2 
- x254x0x2
- x254x111x2 
= 0
x57x254x3 + x176x254x3 + x5x254x3 + x56x254x3 
- x254x0x3
- x254x111x3 
= 0

x231x12x1 + x5x12x1 + x187x12x1 + x133x12x1 
- x12x0x1
- x12x272x1 - x12x119x1 - x12x195x1 
= 0
x57x12x2 + x100x12x2 + x176x12x2 + x231x12x2 + x44x12x2 + x137x12x2 
- x12x0x2
- x12x272x2 - x12x250x2 - x12x119x2 
= 0



x57x111x2 + x100x111x2 + x176x111x2 + x231x111x2 + x44x111x2 + x137x111x2 + x254x111x2 
- x111x0x2

= 0
x57x111x3 + x176x111x3 + x5x111x3 + x56x111x3 + x135x111x3 + x137x111x3 + x255x111x3 + x254x111x3 
- x111x0x3

= 0

x231x89x1 + x5x89x1 + x187x89x1 + x255x89x1 
- x89x0x1

= 0
x57x89x2 + x100x89x2 + x176x89x2 + x231x89x2 + x44x89x2 + x137x89x2 
- x89x0x2

= 0




x57x188x3 + x176x188x3 + x5x188x3 + x56x188x3 + x135x188x3 + x187x188x3 + x137x188x3 
- x188x0x3

= 0

x231x272x1 + x5x272x1 + x187x272x1 + x133x272x1 + x12x272x1 
- x272x0x1
- x272x195x1 
= 0
x57x272x2 + x100x272x2 + x176x272x2 + x231x272x2 + x44x272x2 + x137x272x2 + x12x272x2 
- x272x0x2

= 0


x231x261x1 + x5x261x1 + x187x261x1 + x255x261x1 + x133x261x1 
- x261x0x1

= 0

x57x261x3 + x176x261x3 + x5x261x3 + x56x261x3 + x135x261x3 + x187x261x3 + x137x261x3 + x255x261x3 
- x261x0x3

= 0


x57x250x2 + x100x250x2 + x176x250x2 + x231x250x2 + x44x250x2 + x137x250x2 + x301x250x2 + x12x250x2 
- x250x0x2

= 0
x57x250x3 + x176x250x3 + x5x250x3 + x56x250x3 + x149x250x3 + x135x250x3 + x187x250x3 + x137x250x3 + x301x250x3 + x255x250x3 
- x250x0x3

= 0

x51x119x1 + x231x119x1 + x5x119x1 + x187x119x1 + x255x119x1 + x133x119x1 + x12x119x1 
- x119x0x1

= 0
x57x119x2 + x100x119x2 + x176x119x2 + x231x119x2 + x44x119x2 + x137x119x2 + x301x119x2 + x12x119x2 
- x119x0x2

= 0


x231x195x1 + x5x195x1 + x187x195x1 + x255x195x1 + x133x195x1 + x12x195x1 + x272x195x1 
- x195x0x1

= 0



2y135 = 0
1y187 = 0
1y187 - x176x187x3 = 0
1y137 - x176x137x2 = 0
1y137 - x176x137x3 = 0
1y301 - x57x301x2 - x100x301x2 - x176x301x2 - x231x301x2 - x44x301x2 = 0
1y301 - x57x301x3 - x176x301x3 = 0
1y255 - x231x255x1 - x5x255x1 = 0
1y255 - x57x255x3 - x176x255x3 - x5x255x3 = 0
2y133 - x187x133x1 = 0
1y254 - x57x254x2 - x100x254x2 - x176x254x2 - x231x254x2 - x44x254x2 = 0
1y254 - x57x254x3 - x176x254x3 - x5x254x3 - x56x254x3 = 0
1y12 - x231x12x1 - x5x12x1 - x187x12x1 - x133x12x1 = 0
1y12 - x57x12x2 - x100x12x2 - x176x12x2 - x231x12x2 - x44x12x2 - x137x12x2 = 0
1y111 - x57x111x2 - x100x111x2 - x176x111x2 - x231x111x2 - x44x111x2 - x137x111x2 - x254x111x2 = 0
1y111 - x57x111x3 - x176x111x3 - x5x111x3 - x56x111x3 - x135x111x3 - x137x111x3 - x255x111x3 - x254x111x3 = 0
1y89 - x231x89x1 - x5x89x1 - x187x89x1 - x255x89x1 = 0
1y89 - x57x89x2 - x100x89x2 - x176x89x2 - x231x89x2 - x44x89x2 - x137x89x2 = 0
2y188 - x57x188x3 - x176x188x3 - x5x188x3 - x56x188x3 - x135x188x3 - x187x188x3 - x137x188x3 = 0
1y272 - x231x272x1 - x5x272x1 - x187x272x1 - x133x272x1 - x12x272x1 = 0
1y272 - x57x272x2 - x100x272x2 - x176x272x2 - x231x272x2 - x44x272x2 - x137x272x2 - x12x272x2 = 0
1y261 - x231x261x1 - x5x261x1 - x187x261x1 - x255x261x1 - x133x261x1 = 0
1y261 - x57x261x3 - x176x261x3 - x5x261x3 - x56x261x3 - x135x261x3 - x187x261x3 - x137x261x3 - x255x261x3 = 0
1y250 - x57x250x2 - x100x250x2 - x176x250x2 - x231x250x2 - x44x250x2 - x137x250x2 - x301x250x2 - x12x250x2 = 0
1y250 - x57x250x3 - x176x250x3 - x5x250x3 - x56x250x3 - x149x250x3 - x135x250x3 - x187x250x3 - x137x250x3 - x301x250x3 - x255x250x3 = 0
1y119 - x51x119x1 - x231x119x1 - x5x119x1 - x187x119x1 - x255x119x1 - x133x119x1 - x12x119x1 = 0
1y119 - x57x119x2 - x100x119x2 - x176x119x2 - x231x119x2 - x44x119x2 - x137x119x2 - x301x119x2 - x12x119x2 = 0
2y195 - x231x195x1 - x5x195x1 - x187x195x1 - x255x195x1 - x133x195x1 - x12x195x1 - x272x195x1 = 0

s51 - s119 + 9.279666z51z119z1 <= 8.13
s57 - s301 + 8.742975z57z301z2 <= 7.25
s57 - s301 + 8.742975z57z301z3 <= 7.25
s57 - s255 + 8.644599z57z255z3 <= 7.25
s57 - s254 + 8.532307z57z254z2 <= 7.25
s57 - s254 + 8.532307z57z254z3 <= 7.25
s57 - s12 + 8.910906z57z12z2 <= 7.25
s57 - s111 + 8.603869z57z111z2 <= 7.25
s57 - s111 + 8.603869z57z111z3 <= 7.25
s57 - s89 + 8.684374z57z89z2 <= 7.25
s57 - s188 + 8.997350z57z188z3 <= 7.25
s57 - s272 + 8.940065z57z272z2 <= 7.25
s57 - s261 + 8.827504z57z261z3 <= 7.25
s57 - s250 + 8.863938z57z250z2 <= 7.25
s57 - s250 + 8.863938z57z250z3 <= 7.25
s57 - s119 + 8.838312z57z119z2 <= 7.25
s100 - s301 + 8.832278z100z301z2 <= 7.34
s100 - s254 + 8.603648z100z254z2 <= 7.34
s100 - s12 + 8.988859z100z12z2 <= 7.34
s100 - s111 + 8.674676z100z111z2 <= 7.34
s100 - s89 + 8.755190z100z89z2 <= 7.34
s100 - s272 + 9.017631z100z272z2 <= 7.34
s100 - s250 + 8.946351z100z250z2 <= 7.34
s100 - s119 + 8.922918z100z119z2 <= 7.34
s176 - s187 + 8.611988z176z187z3 <= 7.32
s176 - s137 + 8.774300z176z137z2 <= 7.32
s176 - s137 + 8.774300z176z137z3 <= 7.32
s176 - s301 + 8.542854z176z301z2 <= 7.32
s176 - s301 + 8.542854z176z301z3 <= 7.32
s176 - s255 + 8.718141z176z255z3 <= 7.32
s176 - s254 + 8.712631z176z254z2 <= 7.32
s176 - s254 + 8.712631z176z254z3 <= 7.32
s176 - s12 + 8.772404z176z12z2 <= 7.32
s176 - s111 + 8.733755z176z111z2 <= 7.32
s176 - s111 + 8.733755z176z111z3 <= 7.32
s176 - s89 + 8.765139z176z89z2 <= 7.32
s176 - s188 + 8.896129z176z188z3 <= 7.32
s176 - s272 + 8.805080z176z272z2 <= 7.32
s176 - s261 + 8.850464z176z261z3 <= 7.32
s176 - s250 + 8.684269z176z250z2 <= 7.32
s176 - s250 + 8.684269z176z250z3 <= 7.32
s176 - s119 + 8.646611z176z119z2 <= 7.32
s231 - s301 + 8.894820z231z301z2 <= 7.37
s231 - s255 + 8.740375z231z255z1 <= 7.37
s231 - s254 + 8.613835z231z254z2 <= 7.37
s231 - s12 + 9.039126z231z12z1 <= 7.37
s231 - s12 + 9.039126z231z12z2 <= 7.37
s231 - s111 + 8.691188z231z111z2 <= 7.37
s231 - s89 + 8.777159z231z89z1 <= 7.37
s231 - s89 + 8.777159z231z89z2 <= 7.37
s231 - s272 + 9.067105z231z272z1 <= 7.37
s231 - s272 + 9.067105z231z272z2 <= 7.37
s231 - s261 + 8.926249z231z261z1 <= 7.37
s231 - s250 + 9.003341z231z250z2 <= 7.37
s231 - s119 + 8.982206z231z119z1 <= 7.37
s231 - s119 + 8.982206z231z119z2 <= 7.37
s231 - s195 + 9.147428z231z195z1 <= 7.37
s5 - s255 + 8.870494z5z255z1 <= 7.63
s5 - s255 + 8.870494z5z255z3 <= 7.63
s5 - s254 + 8.823929z5z254z3 <= 7.63
s5 - s12 + 9.128009z5z12z1 <= 7.63
s5 - s111 + 8.858450z5z111z3 <= 7.63
s5 - s89 + 8.915607z5z89z1 <= 7.63
s5 - s188 + 9.203955z5z188z3 <= 7.63
s5 - s272 + 9.155260z5z272z1 <= 7.63
s5 - s261 + 9.042725z5z261z1 <= 7.63
s5 - s261 + 9.042725z5z261z3 <= 7.63
s5 - s250 + 9.107187z5z250z3 <= 7.63
s5 - s119 + 9.097168z5z119z1 <= 7.63
s5 - s195 + 9.234493z5z195z1 <= 7.63
s44 - s301 + 8.753737z44z301z2 <= 7.23
s44 - s254 + 8.458457z44z254z2 <= 7.23
s44 - s12 + 8.885866z44z12z2 <= 7.23
s44 - s111 + 8.534331z44z111z2 <= 7.23
s44 - s89 + 8.619557z44z89z2 <= 7.23
s44 - s272 + 8.913444z44z272z2 <= 7.23
s44 - s250 + 8.854563z44z250z2 <= 7.23
s44 - s119 + 8.835775z44z119z2 <= 7.23
s56 - s254 + 9.067343z56z254z3 <= 7.72
s56 - s111 + 9.049843z56z111z3 <= 7.72
s56 - s188 + 9.131425z56z188z3 <= 7.72
s56 - s261 + 9.094768z56z261z3 <= 7.72
s56 - s250 + 8.994201z56z250z3 <= 7.72
s149 - s250 + 9.375006z149z250z3 <= 8.12
s135 - s111 + 10.095304z135z111z3 <= 8.77
s135 - s188 + 9.977419z135z188z3 <= 8.77
s135 - s261 + 9.923912z135z261z3 <= 8.77
s135 - s250 + 10.124276z135z250z3 <= 8.77
s187 - s133 + 9.981871z187z133z1 <= 8.77
s187 - s12 + 9.944484z187z12z1 <= 8.77
s187 - s89 + 10.223775z187z89z1 <= 8.77
s187 - s188 + 10.094688z187z188z3 <= 8.77
s187 - s272 + 9.977633z187z272z1 <= 8.77
s187 - s261 + 10.212067z187z261z1 <= 8.77
s187 - s261 + 10.212067z187z261z3 <= 8.77
s187 - s250 + 9.859444z187z250z3 <= 8.77
s187 - s119 + 9.879950z187z119z1 <= 8.77
s187 - s195 + 10.095577z187z195z1 <= 8.77
s137 - s12 + 9.950139z137z12z2 <= 8.79
s137 - s111 + 10.182654z137z111z2 <= 8.79
s137 - s111 + 10.182654z137z111z3 <= 8.79
s137 - s89 + 10.106719z137z89z2 <= 8.79
s137 - s188 + 9.936363z137z188z3 <= 8.79
s137 - s272 + 9.952207z137z272z2 <= 8.79
s137 - s261 + 10.016765z137z261z3 <= 8.79
s137 - s250 + 10.085297z137z250z2 <= 8.79
s137 - s250 + 10.085297z137z250z3 <= 8.79
s137 - s119 + 10.143396z137z119z2 <= 8.79
s301 - s250 + 10.140404z301z250z2 <= 8.92
s301 - s250 + 10.140404z301z250z3 <= 8.92
s301 - s119 + 10.073912z301z119z2 <= 8.92
s255 - s111 + 10.014853z255z111z3 <= 8.93
s255 - s89 + 9.977140z255z89z1 <= 8.93
s255 - s261 + 10.117143z255z261z1 <= 8.93
s255 - s261 + 10.117143z255z261z3 <= 8.93
s255 - s250 + 10.432837z255z250z3 <= 8.93
s255 - s119 + 10.456836z255z119z1 <= 8.93
s255 - s195 + 10.420624z255z195z1 <= 8.93
s133 - s12 + 10.059602z133z12z1 <= 8.99
s133 - s272 + 10.057987z133z272z1 <= 8.99
s133 - s261 + 10.310624z133z261z1 <= 8.99
s133 - s119 + 10.282878z133z119z1 <= 8.99
s133 - s195 + 10.119443z133z195z1 <= 8.99
s254 - s111 + 10.177687z254z111z2 <= 9.09
s254 - s111 + 10.177687z254z111z3 <= 9.09
s12 - s272 + 10.233334z12z272z1 <= 9.20
s12 - s272 + 10.233334z12z272z2 <= 9.20
s12 - s250 + 10.366667z12z250z2 <= 9.20
s12 - s119 + 10.436737z12z119z1 <= 9.20
s12 - s119 + 10.436737z12z119z2 <= 9.20
s12 - s195 + 10.352023z12z195z1 <= 9.20
s272 - s195 + 10.420185z272z195z1 <= 9.30

x51x119x1 - 1z51z119z1 <= 0
x57x301x2 - 1z57z301z2 <= 0
x57x301x3 - 1z57z301z3 <= 0
x57x255x3 - 1z57z255z3 <= 0
x57x254x2 - 1z57z254z2 <= 0
x57x254x3 - 1z57z254z3 <= 0
x57x12x2 - 1z57z12z2 <= 0
x57x111x2 - 1z57z111z2 <= 0
x57x111x3 - 1z57z111z3 <= 0
x57x89x2 - 1z57z89z2 <= 0
x57x188x3 - 2z57z188z3 <= 0
x57x272x2 - 1z57z272z2 <= 0
x57x261x3 - 1z57z261z3 <= 0
x57x250x2 - 1z57z250z2 <= 0
x57x250x3 - 1z57z250z3 <= 0
x57x119x2 - 1z57z119z2 <= 0
x100x301x2 - 1z100z301z2 <= 0
x100x254x2 - 1z100z254z2 <= 0
x100x12x2 - 1z100z12z2 <= 0
x100x111x2 - 1z100z111z2 <= 0
x100x89x2 - 1z100z89z2 <= 0
x100x272x2 - 1z100z272z2 <= 0
x100x250x2 - 1z100z250z2 <= 0
x100x119x2 - 1z100z119z2 <= 0
x176x187x3 - 1z176z187z3 <= 0
x176x137x2 - 1z176z137z2 <= 0
x176x137x3 - 1z176z137z3 <= 0
x176x301x2 - 1z176z301z2 <= 0
x176x301x3 - 1z176z301z3 <= 0
x176x255x3 - 1z176z255z3 <= 0
x176x254x2 - 1z176z254z2 <= 0
x176x254x3 - 1z176z254z3 <= 0
x176x12x2 - 1z176z12z2 <= 0
x176x111x2 - 1z176z111z2 <= 0
x176x111x3 - 1z176z111z3 <= 0
x176x89x2 - 1z176z89z2 <= 0
x176x188x3 - 2z176z188z3 <= 0
x176x272x2 - 1z176z272z2 <= 0
x176x261x3 - 1z176z261z3 <= 0
x176x250x2 - 1z176z250z2 <= 0
x176x250x3 - 1z176z250z3 <= 0
x176x119x2 - 1z176z119z2 <= 0
x231x301x2 - 1z231z301z2 <= 0
x231x255x1 - 1z231z255z1 <= 0
x231x254x2 - 1z231z254z2 <= 0
x231x12x1 - 1z231z12z1 <= 0
x231x12x2 - 1z231z12z2 <= 0
x231x111x2 - 1z231z111z2 <= 0
x231x89x1 - 1z231z89z1 <= 0
x231x89x2 - 1z231z89z2 <= 0
x231x272x1 - 1z231z272z1 <= 0
x231x272x2 - 1z231z272z2 <= 0
x231x261x1 - 1z231z261z1 <= 0
x231x250x2 - 1z231z250z2 <= 0
x231x119x1 - 1z231z119z1 <= 0
x231x119x2 - 1z231z119z2 <= 0
x231x195x1 - 2z231z195z1 <= 0
x5x255x1 - 1z5z255z1 <= 0
x5x255x3 - 1z5z255z3 <= 0
x5x254x3 - 1z5z254z3 <= 0
x5x12x1 - 1z5z12z1 <= 0
x5x111x3 - 1z5z111z3 <= 0
x5x89x1 - 1z5z89z1 <= 0
x5x188x3 - 2z5z188z3 <= 0
x5x272x1 - 1z5z272z1 <= 0
x5x261x1 - 1z5z261z1 <= 0
x5x261x3 - 1z5z261z3 <= 0
x5x250x3 - 1z5z250z3 <= 0
x5x119x1 - 1z5z119z1 <= 0
x5x195x1 - 2z5z195z1 <= 0
x44x301x2 - 1z44z301z2 <= 0
x44x254x2 - 1z44z254z2 <= 0
x44x12x2 - 1z44z12z2 <= 0
x44x111x2 - 1z44z111z2 <= 0
x44x89x2 - 1z44z89z2 <= 0
x44x272x2 - 1z44z272z2 <= 0
x44x250x2 - 1z44z250z2 <= 0
x44x119x2 - 1z44z119z2 <= 0
x56x254x3 - 1z56z254z3 <= 0
x56x111x3 - 1z56z111z3 <= 0
x56x188x3 - 2z56z188z3 <= 0
x56x261x3 - 1z56z261z3 <= 0
x56x250x3 - 1z56z250z3 <= 0
x149x250x3 - 1z149z250z3 <= 0
x135x111x3 - 1z135z111z3 <= 0
x135x188x3 - 2z135z188z3 <= 0
x135x261x3 - 1z135z261z3 <= 0
x135x250x3 - 1z135z250z3 <= 0
x135x0x3 <= 2
x187x133x1 - 2z187z133z1 <= 0
x187x12x1 - 1z187z12z1 <= 0
x187x89x1 - 1z187z89z1 <= 0
x187x188x3 - 2z187z188z3 <= 0
x187x272x1 - 1z187z272z1 <= 0
x187x261x1 - 1z187z261z1 <= 0
x187x261x3 - 1z187z261z3 <= 0
x187x250x3 - 1z187z250z3 <= 0
x187x119x1 - 1z187z119z1 <= 0
x187x195x1 - 2z187z195z1 <= 0
x187x0x1 <= 1
x187x0x3 <= 1
x137x12x2 - 1z137z12z2 <= 0
x137x111x2 - 1z137z111z2 <= 0
x137x111x3 - 1z137z111z3 <= 0
x137x89x2 - 1z137z89z2 <= 0
x137x188x3 - 2z137z188z3 <= 0
x137x272x2 - 1z137z272z2 <= 0
x137x261x3 - 1z137z261z3 <= 0
x137x250x2 - 1z137z250z2 <= 0
x137x250x3 - 1z137z250z3 <= 0
x137x119x2 - 1z137z119z2 <= 0
x137x0x2 <= 1
x137x0x3 <= 1
x301x250x2 - 1z301z250z2 <= 0
x301x250x3 - 1z301z250z3 <= 0
x301x119x2 - 1z301z119z2 <= 0
x301x0x2 <= 1
x301x0x3 <= 1
x255x111x3 - 1z255z111z3 <= 0
x255x89x1 - 1z255z89z1 <= 0
x255x261x1 - 1z255z261z1 <= 0
x255x261x3 - 1z255z261z3 <= 0
x255x250x3 - 1z255z250z3 <= 0
x255x119x1 - 1z255z119z1 <= 0
x255x195x1 - 2z255z195z1 <= 0
x255x0x1 <= 1
x255x0x3 <= 1
x133x12x1 - 1z133z12z1 <= 0
x133x272x1 - 1z133z272z1 <= 0
x133x261x1 - 1z133z261z1 <= 0
x133x119x1 - 1z133z119z1 <= 0
x133x195x1 - 2z133z195z1 <= 0
x133x0x1 <= 2
x254x111x2 - 1z254z111z2 <= 0
x254x111x3 - 1z254z111z3 <= 0
x254x0x2 <= 1
x254x0x3 <= 1
x12x272x1 - 1z12z272z1 <= 0
x12x272x2 - 1z12z272z2 <= 0
x12x250x2 - 1z12z250z2 <= 0
x12x119x1 - 1z12z119z1 <= 0
x12x119x2 - 1z12z119z2 <= 0
x12x195x1 - 2z12z195z1 <= 0
x12x0x1 <= 1
x12x0x2 <= 1
x111x0x2 <= 1
x111x0x3 <= 1
x89x0x1 <= 1
x89x0x2 <= 1
x188x0x3 <= 2
x272x195x1 - 2z272z195z1 <= 0
x272x0x1 <= 1
x272x0x2 <= 1
x261x0x1 <= 1
x261x0x3 <= 1
x250x0x2 <= 1
x250x0x3 <= 1
x119x0x1 <= 1
x119x0x2 <= 1
x195x0x1 <= 2

s187 - 6.00z176z187z3 >= 0
s137 - 6.00z176z137z2 >= 0
s137 - 6.00z176z137z3 >= 0
s301 - 6.00z57z301z2 >= 0
s301 - 6.00z57z301z3 >= 0
s301 - 6.00z100z301z2 >= 0
s301 - 6.00z176z301z2 >= 0
s301 - 6.00z176z301z3 >= 0
s301 - 6.00z231z301z2 >= 0
s301 - 6.00z44z301z2 >= 0
s255 - 6.00z57z255z3 >= 0
s255 - 6.00z176z255z3 >= 0
s255 - 6.00z231z255z1 >= 0
s255 - 6.00z5z255z1 >= 0
s255 - 6.00z5z255z3 >= 0
s133 - 6.00z187z133z1 >= 0
s254 - 6.00z57z254z2 >= 0
s254 - 6.00z57z254z3 >= 0
s254 - 6.00z100z254z2 >= 0
s254 - 6.00z176z254z2 >= 0
s254 - 6.00z176z254z3 >= 0
s254 - 6.00z231z254z2 >= 0
s254 - 6.00z5z254z3 >= 0
s254 - 6.00z44z254z2 >= 0
s254 - 6.00z56z254z3 >= 0
s12 - 6.00z57z12z2 >= 0
s12 - 6.00z100z12z2 >= 0
s12 - 6.00z176z12z2 >= 0
s12 - 6.00z231z12z1 >= 0
s12 - 6.00z231z12z2 >= 0
s12 - 6.00z5z12z1 >= 0
s12 - 6.00z44z12z2 >= 0
s12 - 6.00z187z12z1 >= 0
s12 - 6.00z137z12z2 >= 0
s12 - 6.00z133z12z1 >= 0
s111 - 6.00z57z111z2 >= 0
s111 - 6.00z57z111z3 >= 0
s111 - 6.00z100z111z2 >= 0
s111 - 6.00z176z111z2 >= 0
s111 - 6.00z176z111z3 >= 0
s111 - 6.00z231z111z2 >= 0
s111 - 6.00z5z111z3 >= 0
s111 - 6.00z44z111z2 >= 0
s111 - 6.00z56z111z3 >= 0
s111 - 6.00z135z111z3 >= 0
s111 - 6.00z137z111z2 >= 0
s111 - 6.00z137z111z3 >= 0
s111 - 6.00z255z111z3 >= 0
s111 - 6.00z254z111z2 >= 0
s111 - 6.00z254z111z3 >= 0
s89 - 6.00z57z89z2 >= 0
s89 - 6.00z100z89z2 >= 0
s89 - 6.00z176z89z2 >= 0
s89 - 6.00z231z89z1 >= 0
s89 - 6.00z231z89z2 >= 0
s89 - 6.00z5z89z1 >= 0
s89 - 6.00z44z89z2 >= 0
s89 - 6.00z187z89z1 >= 0
s89 - 6.00z137z89z2 >= 0
s89 - 6.00z255z89z1 >= 0
s188 - 6.00z57z188z3 >= 0
s188 - 6.00z176z188z3 >= 0
s188 - 6.00z5z188z3 >= 0
s188 - 6.00z56z188z3 >= 0
s188 - 6.00z135z188z3 >= 0
s188 - 6.00z187z188z3 >= 0
s188 - 6.00z137z188z3 >= 0
s272 - 6.00z57z272z2 >= 0
s272 - 6.00z100z272z2 >= 0
s272 - 6.00z176z272z2 >= 0
s272 - 6.00z231z272z1 >= 0
s272 - 6.00z231z272z2 >= 0
s272 - 6.00z5z272z1 >= 0
s272 - 6.00z44z272z2 >= 0
s272 - 6.00z187z272z1 >= 0
s272 - 6.00z137z272z2 >= 0
s272 - 6.00z133z272z1 >= 0
s272 - 6.00z12z272z1 >= 0
s272 - 6.00z12z272z2 >= 0
s261 - 6.00z57z261z3 >= 0
s261 - 6.00z176z261z3 >= 0
s261 - 6.00z231z261z1 >= 0
s261 - 6.00z5z261z1 >= 0
s261 - 6.00z5z261z3 >= 0
s261 - 6.00z56z261z3 >= 0
s261 - 6.00z135z261z3 >= 0
s261 - 6.00z187z261z1 >= 0
s261 - 6.00z187z261z3 >= 0
s261 - 6.00z137z261z3 >= 0
s261 - 6.00z255z261z1 >= 0
s261 - 6.00z255z261z3 >= 0
s261 - 6.00z133z261z1 >= 0
s250 - 6.00z57z250z2 >= 0
s250 - 6.00z57z250z3 >= 0
s250 - 6.00z100z250z2 >= 0
s250 - 6.00z176z250z2 >= 0
s250 - 6.00z176z250z3 >= 0
s250 - 6.00z231z250z2 >= 0
s250 - 6.00z5z250z3 >= 0
s250 - 6.00z44z250z2 >= 0
s250 - 6.00z56z250z3 >= 0
s250 - 6.00z149z250z3 >= 0
s250 - 6.00z135z250z3 >= 0
s250 - 6.00z187z250z3 >= 0
s250 - 6.00z137z250z2 >= 0
s250 - 6.00z137z250z3 >= 0
s250 - 6.00z301z250z2 >= 0
s250 - 6.00z301z250z3 >= 0
s250 - 6.00z255z250z3 >= 0
s250 - 6.00z12z250z2 >= 0
s119 - 6.00z51z119z1 >= 0
s119 - 6.00z57z119z2 >= 0
s119 - 6.00z100z119z2 >= 0
s119 - 6.00z176z119z2 >= 0
s119 - 6.00z231z119z1 >= 0
s119 - 6.00z231z119z2 >= 0
s119 - 6.00z5z119z1 >= 0
s119 - 6.00z44z119z2 >= 0
s119 - 6.00z187z119z1 >= 0
s119 - 6.00z137z119z2 >= 0
s119 - 6.00z301z119z2 >= 0
s119 - 6.00z255z119z1 >= 0
s119 - 6.00z133z119z1 >= 0
s119 - 6.00z12z119z1 >= 0
s119 - 6.00z12z119z2 >= 0
s195 - 6.00z231z195z1 >= 0
s195 - 6.00z5z195z1 >= 0
s195 - 6.00z187z195z1 >= 0
s195 - 6.00z255z195z1 >= 0
s195 - 6.00z133z195z1 >= 0
s195 - 6.00z12z195z1 >= 0
s195 - 6.00z272z195z1 >= 0

Bounds
s51 = 8.134064
s293 = 8.335860
s126 = 8.670250
s71 = 8.703662
s35 = 8.528421
s105 = 8.760387
s57 = 7.251040
s100 = 7.342880
s176 = 7.316090
s231 = 7.366090
s5 = 7.631980
s44 = 7.234850
s56 = 7.722090
s149 = 8.115690
7.770000 <= s135 <= 8.770000
7.770000 <= s187 <= 8.770000
7.790000 <= s137 <= 8.790000
7.920000 <= s301 <= 8.920000
7.930000 <= s255 <= 8.930000
7.990000 <= s133 <= 8.990000
8.090000 <= s254 <= 9.090000
8.200000 <= s12 <= 9.200000
8.220000 <= s111 <= 9.220000
8.270000 <= s89 <= 9.270000
8.300000 <= s188 <= 9.300000
8.300000 <= s272 <= 9.300000
8.420000 <= s261 <= 9.420000
8.440000 <= s250 <= 9.440000
8.470000 <= s119 <= 9.470000
8.490000 <= s195 <= 9.490000

General
x51x119x1 





x57x301x2 x57x301x3 x57x255x3 x57x254x2 x57x254x3 x57x12x2 x57x111x2 x57x111x3 x57x89x2 x57x188x3 x57x272x2 x57x261x3 x57x250x2 x57x250x3 x57x119x2 
x100x301x2 x100x254x2 x100x12x2 x100x111x2 x100x89x2 x100x272x2 x100x250x2 x100x119x2 
x176x187x3 x176x137x2 x176x137x3 x176x301x2 x176x301x3 x176x255x3 x176x254x2 x176x254x3 x176x12x2 x176x111x2 x176x111x3 x176x89x2 x176x188x3 x176x272x2 x176x261x3 x176x250x2 x176x250x3 x176x119x2 
x231x301x2 x231x255x1 x231x254x2 x231x12x1 x231x12x2 x231x111x2 x231x89x1 x231x89x2 x231x272x1 x231x272x2 x231x261x1 x231x250x2 x231x119x1 x231x119x2 x231x195x1 
x5x255x1 x5x255x3 x5x254x3 x5x12x1 x5x111x3 x5x89x1 x5x188x3 x5x272x1 x5x261x1 x5x261x3 x5x250x3 x5x119x1 x5x195x1 
x44x301x2 x44x254x2 x44x12x2 x44x111x2 x44x89x2 x44x272x2 x44x250x2 x44x119x2 
x56x254x3 x56x111x3 x56x188x3 x56x261x3 x56x250x3 
x149x250x3 
x135x111x3 x135x188x3 x135x261x3 x135x250x3 x135x0x3 
x187x133x1 x187x12x1 x187x89x1 x187x188x3 x187x272x1 x187x261x1 x187x261x3 x187x250x3 x187x119x1 x187x195x1 x187x0x1 x187x0x3 
x137x12x2 x137x111x2 x137x111x3 x137x89x2 x137x188x3 x137x272x2 x137x261x3 x137x250x2 x137x250x3 x137x119x2 x137x0x2 x137x0x3 
x301x250x2 x301x250x3 x301x119x2 x301x0x2 x301x0x3 
x255x111x3 x255x89x1 x255x261x1 x255x261x3 x255x250x3 x255x119x1 x255x195x1 x255x0x1 x255x0x3 
x133x12x1 x133x272x1 x133x261x1 x133x119x1 x133x195x1 x133x0x1 
x254x111x2 x254x111x3 x254x0x2 x254x0x3 
x12x272x1 x12x272x2 x12x250x2 x12x119x1 x12x119x2 x12x195x1 x12x0x1 x12x0x2 
x111x0x2 x111x0x3 
x89x0x1 x89x0x2 
x188x0x3 
x272x195x1 x272x0x1 x272x0x2 
x261x0x1 x261x0x3 
x250x0x2 x250x0x3 
x119x0x1 x119x0x2 
x195x0x1 

Binaries
y135 y187 y137 y301 y255 y133 y254 y12 y111 y89 y188 y272 y261 y250 y119 y195 
z51z119z1 





z57z301z2 z57z301z3 z57z255z3 z57z254z2 z57z254z3 z57z12z2 z57z111z2 z57z111z3 z57z89z2 z57z188z3 z57z272z2 z57z261z3 z57z250z2 z57z250z3 z57z119z2 
z100z301z2 z100z254z2 z100z12z2 z100z111z2 z100z89z2 z100z272z2 z100z250z2 z100z119z2 
z176z187z3 z176z137z2 z176z137z3 z176z301z2 z176z301z3 z176z255z3 z176z254z2 z176z254z3 z176z12z2 z176z111z2 z176z111z3 z176z89z2 z176z188z3 z176z272z2 z176z261z3 z176z250z2 z176z250z3 z176z119z2 
z231z301z2 z231z255z1 z231z254z2 z231z12z1 z231z12z2 z231z111z2 z231z89z1 z231z89z2 z231z272z1 z231z272z2 z231z261z1 z231z250z2 z231z119z1 z231z119z2 z231z195z1 
z5z255z1 z5z255z3 z5z254z3 z5z12z1 z5z111z3 z5z89z1 z5z188z3 z5z272z1 z5z261z1 z5z261z3 z5z250z3 z5z119z1 z5z195z1 
z44z301z2 z44z254z2 z44z12z2 z44z111z2 z44z89z2 z44z272z2 z44z250z2 z44z119z2 
z56z254z3 z56z111z3 z56z188z3 z56z261z3 z56z250z3 
z149z250z3 
z135z111z3 z135z188z3 z135z261z3 z135z250z3 
z187z133z1 z187z12z1 z187z89z1 z187z188z3 z187z272z1 z187z261z1 z187z261z3 z187z250z3 z187z119z1 z187z195z1 
z137z12z2 z137z111z2 z137z111z3 z137z89z2 z137z188z3 z137z272z2 z137z261z3 z137z250z2 z137z250z3 z137z119z2 
z301z250z2 z301z250z3 z301z119z2 
z255z111z3 z255z89z1 z255z261z1 z255z261z3 z255z250z3 z255z119z1 z255z195z1 
z133z12z1 z133z272z1 z133z261z1 z133z119z1 z133z195z1 
z254z111z2 z254z111z3 
z12z272z1 z12z272z2 z12z250z2 z12z119z1 z12z119z2 z12z195z1 



z272z195z1 





End